c t mc
c file mc2023_track1_014.cnf
p cnf 1548 1539
324 0
-21 0
-20 0
38 0
-39 0
35 0
-36 0
-133 0
-173 0
-2 0
-19 0
-3 0
-4 0
-9 0
-12 0
-13 0
-14 0
-15 0
-16 0
-17 0
-34 0
-55 0
-56 0
-73 0
-91 0
-44 0
-63 0
-49 0
-54 0
-79 0
-80 0
-98 0
-65 0
-72 0
-90 0
-96 0
-127 0
-145 0
-146 0
-130 0
-148 0
-132 0
-122 0
-123 0
-141 0
-156 0
-155 0
-175 0
-181 0
-199 0
-217 0
-192 0
-183 0
-207 0
-225 0
-243 0
-227 0
-228 0
-215 0
-253 0
-237 0
-238 0
-242 0
-245 0
-262 0
-263 0
-250 0
-267 0
-268 0
-256 0
-261 0
-287 0
-303 0
-307 0
-308 0
-293 0
-311 0
-310 0
-315 0
-322 0
-213 0
-78 0
-124 0
-172 0
-188 0
-189 0
-196 0
-218 0
-224 0
-286 0
-301 0
-134 0
-381 -7 -24 25 0
-1447 -298 -281 299 0
381 -7 -24 -25 0
-382 7 -24 25 0
382 7 -24 -25 0
-1444 -297 280 298 0
1443 -297 -298 -280 0
-541 -48 64 66 0
541 -48 64 -66 0
-542 48 64 66 0
542 48 64 -66 0
-543 -48 -64 66 0
543 -48 -64 -66 0
564 53 70 -71 0
544 48 -64 -66 0
-545 -66 67 48 0
545 -66 -67 48 0
391 26 -27 8 0
-392 26 -8 27 0
392 26 -8 -27 0
-152 -151 -135 -117 0
-152 117 -151 135 0
807 -116 135 -117 0
-373 -22 -5 23 0
373 -22 -5 -23 0
-374 -22 5 23 0
374 -22 5 -23 0
-375 22 -5 23 0
375 22 -5 -23 0
-376 22 5 23 0
376 22 5 -23 0
-1506 296 -313 314 0
1505 -296 -313 -314 0
-1505 -296 -313 314 0
1447 -298 -281 -299 0
1446 297 280 -298 0
-1446 297 280 298 0
1445 297 -298 -280 0
-1445 297 298 -280 0
1444 -297 280 -298 0
562 -70 -71 53 0
-563 -53 70 71 0
563 -53 70 -71 0
-564 53 70 71 0
-1441 296 -279 297 0
1440 -297 -296 279 0
-1440 297 -296 279 0
1439 -297 -296 -279 0
-1439 297 -296 -279 0
1438 295 278 -296 0
-1438 295 278 296 0
-546 -48 -66 67 0
546 -48 -66 -67 0
547 48 -67 66 0
-548 -48 66 67 0
548 -48 66 -67 0
-549 -50 -67 68 0
549 -50 -67 -68 0
-550 50 -67 68 0
-520 42 60 59 0
520 42 -60 59 0
-1453 299 -282 300 0
1452 -299 -300 282 0
1450 298 281 -299 0
-1450 298 281 299 0
1449 -299 298 -281 0
-1449 299 298 -281 0
1448 -298 281 -299 0
-1448 -298 281 299 0
444 -40 23 -41 0
1522 -317 300 -318 0
-1522 -317 300 318 0
1521 -317 -300 -318 0
-1521 -317 -300 318 0
1520 299 316 -317 0
-1520 299 316 317 0
1519 -299 316 -317 0
-1519 -299 316 317 0
1518 299 -316 -317 0
-1518 299 -316 317 0
1508 296 313 -314 0
-1508 296 313 314 0
1507 -296 313 -314 0
-1507 -296 313 314 0
1506 296 -313 -314 0
1536 320 -321 -285 0
395 -10 27 -28 0
451 -25 -42 -43 0
-452 25 -42 43 0
452 25 -42 -43 0
-453 -25 42 43 0
453 -25 42 -43 0
-454 25 42 43 0
454 25 42 -43 0
1475 -288 -305 -306 0
1487 -291 290 -309 0
-1487 -291 290 309 0
1529 -320 -319 -302 0
-1452 -299 300 282 0
1451 -299 -300 -282 0
-1451 -299 300 -282 0
-443 -40 -23 41 0
443 -40 -23 -41 0
-444 -40 23 41 0
383 -25 24 -7 0
-384 25 24 7 0
384 -25 24 7 0
-385 -25 -8 26 0
385 -25 -8 -26 0
-386 -25 8 26 0
386 -25 8 -26 0
-387 25 -8 26 0
387 25 -8 -26 0
-388 25 8 26 0
388 25 8 -26 0
-544 48 -64 66 0
-389 -26 27 8 0
389 8 -27 -26 0
-390 -8 27 -26 0
390 -8 -27 -26 0
-391 26 27 8 0
-1536 320 321 -285 0
1535 320 285 -321 0
-1535 320 285 321 0
1534 -320 -321 -285 0
-1534 321 -285 -320 0
1533 -321 285 -320 0
-1533 321 285 -320 0
1532 319 302 -320 0
-1532 319 302 320 0
1531 -320 -302 319 0
-1531 320 -302 319 0
1530 -320 302 -319 0
-1529 320 -302 -319 0
1524 317 300 -318 0
-1524 317 300 318 0
1523 317 -300 -318 0
-1523 317 -300 318 0
-383 25 24 -7 0
-1070 184 -201 202 0
-1105 -193 211 -210 0
1070 184 -201 -202 0
-1071 -184 201 202 0
1071 -184 201 -202 0
-1072 184 202 201 0
1072 184 -202 201 0
-1293 258 259 -241 0
1292 241 -258 -259 0
-1292 241 -258 259 0
1291 -259 -258 -241 0
-1077 -186 -203 204 0
1077 -186 -204 -203 0
1056 -198 180 -197 0
-1057 198 197 -180 0
1057 197 -180 -198 0
-1058 198 197 180 0
518 42 -59 -60 0
-519 59 60 -42 0
519 59 -60 -42 0
487 -52 -51 33 0
-1066 -182 201 -200 0
1066 -182 -201 -200 0
-1067 182 200 201 0
1067 182 -201 200 0
1065 182 -201 -200 0
1094 190 -206 -208 0
-1095 206 208 -190 0
1095 206 -208 -190 0
-1530 320 302 -319 0
-1068 -182 201 200 0
1068 -182 -201 200 0
-1069 -184 202 -201 0
1069 -184 -202 -201 0
-1283 255 -239 257 0
1105 -193 -211 -210 0
-1106 211 193 -210 0
1106 193 -210 -211 0
-1107 -193 210 211 0
1107 -193 210 -211 0
-1108 193 210 211 0
-1055 198 -180 -197 0
1055 -198 -180 -197 0
-1056 198 180 -197 0
1178 211 209 -229 0
-1179 -229 -212 230 0
1179 -229 -212 -230 0
-1180 -229 212 230 0
1180 -229 212 -230 0
-1093 -190 208 -206 0
1093 -190 -208 -206 0
1058 -198 197 180 0
-1294 258 259 241 0
-1061 -182 -163 200 0
1061 -182 -200 -163 0
-1062 182 -163 200 0
1062 182 -163 -200 0
-1063 200 163 -182 0
1063 -182 163 -200 0
-1064 200 163 182 0
1064 182 163 -200 0
-1065 182 201 -200 0
556 68 51 -69 0
-1096 206 190 208 0
1096 190 -208 206 0
-1285 -255 -239 257 0
1284 255 239 -257 0
-1284 255 257 239 0
1283 255 -239 -257 0
-562 -70 71 53 0
-473 47 -30 48 0
473 47 -30 -48 0
-474 47 30 48 0
474 47 30 -48 0
1469 -285 -249 -304 0
-1469 -285 -249 304 0
-479 48 -32 50 0
479 48 -32 -50 0
-480 48 32 50 0
480 48 32 -50 0
-481 -48 -32 50 0
481 -48 -32 -50 0
-482 -48 32 50 0
482 -48 32 -50 0
-487 52 -51 33 0
-463 -28 -45 46 0
-547 48 67 66 0
550 50 -67 -68 0
-551 -50 67 68 0
551 -50 67 -68 0
-552 50 67 68 0
552 50 67 -68 0
-553 -68 -51 69 0
553 -68 -51 -69 0
-554 -68 51 69 0
554 -68 51 -69 0
-555 68 -51 69 0
555 68 -69 -51 0
-1443 -297 298 -280 0
1442 -297 296 279 0
-1442 297 296 279 0
1441 -297 296 -279 0
-561 -70 71 -53 0
561 -70 -71 -53 0
472 -47 30 -48 0
-509 -40 -57 58 0
509 -40 -57 -58 0
-510 40 -57 58 0
510 40 -57 -58 0
-511 -40 57 58 0
511 -40 57 -58 0
-512 40 57 58 0
512 40 57 -58 0
1454 299 282 -300 0
-1454 299 300 282 0
-1078 186 -203 204 0
1294 241 -259 258 0
1453 299 -300 -282 0
-517 -42 -59 60 0
517 -42 -59 -60 0
-518 42 -59 60 0
463 -28 -45 -46 0
-464 28 -45 46 0
464 28 -45 -46 0
-465 -28 46 45 0
465 -28 -46 45 0
-466 28 46 45 0
466 28 -46 45 0
-467 -29 -46 47 0
467 -29 -46 -47 0
-468 29 -46 47 0
468 29 -46 -47 0
-469 -29 46 47 0
-556 68 51 69 0
-470 29 46 47 0
470 29 46 -47 0
-471 -47 -30 48 0
471 -47 -30 -48 0
-472 -47 30 48 0
679 -101 100 -83 0
-580 -75 58 76 0
580 -75 58 -76 0
-604 82 64 -81 0
-681 -101 -84 102 0
681 -101 -84 -102 0
-682 -101 84 102 0
605 -82 -64 81 0
747 -101 -118 -119 0
-606 81 64 82 0
606 81 64 -82 0
-607 83 64 -82 0
-747 -101 -118 119 0
607 -83 -82 64 0
-608 83 -82 -64 0
608 -82 -64 -83 0
-609 83 64 82 0
1435 -295 -278 -296 0
-1435 296 -278 -295 0
1434 -295 294 277 0
469 -29 46 -47 0
-716 93 -110 111 0
715 -111 -110 -93 0
-715 -93 -110 111 0
714 92 109 -110 0
-714 92 109 110 0
713 -92 109 -110 0
-713 -92 109 110 0
712 92 -109 -110 0
-712 92 -109 110 0
-1437 296 295 -278 0
1436 -296 -295 278 0
-579 -75 -58 76 0
579 -75 -58 -76 0
-743 -100 118 -117 0
-680 83 101 100 0
680 83 -101 100 0
411 31 -32 11 0
-727 -113 114 95 0
726 112 95 -113 0
-677 101 -100 -83 0
677 -83 -101 -100 0
-678 83 101 -100 0
678 83 -101 -100 0
691 103 -86 -104 0
-692 103 86 104 0
-701 107 -89 -106 0
-722 111 94 112 0
721 111 -94 -112 0
700 105 88 -106 0
-700 105 88 106 0
609 -83 64 82 0
-746 117 118 100 0
745 117 -100 -118 0
1433 -295 294 -277 0
-1434 295 277 294 0
1437 -296 295 -278 0
1432 -295 277 -294 0
-1432 295 277 -294 0
1431 -295 -294 -277 0
-1431 295 -294 -277 0
-750 101 118 119 0
749 -101 118 -119 0
-749 -101 118 119 0
748 101 -118 -119 0
-748 101 -118 119 0
-603 82 -81 -64 0
603 -82 -64 -81 0
-679 -83 101 100 0
-627 -87 88 -70 0
742 116 99 -117 0
-611 -66 -83 84 0
610 -83 -64 82 0
-610 83 -64 82 0
-737 116 -62 115 0
-742 116 99 117 0
741 116 -99 -117 0
-628 70 -87 88 0
627 -70 -87 -88 0
-739 -116 -99 117 0
-741 116 -99 117 0
740 -116 99 -117 0
-624 -86 69 87 0
624 -86 69 -87 0
-625 86 -69 87 0
-1433 295 294 -277 0
612 66 -83 -84 0
-613 83 -66 84 0
613 83 -66 -84 0
716 93 -110 -111 0
-614 83 66 84 0
614 83 66 -84 0
-711 -92 -109 110 0
711 -92 -109 -110 0
-745 117 118 -100 0
-171 190 187 -170 0
-622 68 85 86 0
622 68 85 -86 0
-623 -86 -69 87 0
623 -86 -69 -87 0
-612 66 -83 84 0
611 -66 -83 -84 0
743 -100 -118 -117 0
-230 195 231 -212 0
-125 -121 -107 106 0
604 -82 64 -81 0
-605 82 -64 81 0
-581 75 -58 76 0
581 75 -58 -76 0
-582 75 58 76 0
582 75 58 -76 0
-583 -76 -59 77 0
583 -76 -59 -77 0
-584 -76 59 77 0
584 -76 59 -77 0
-585 76 -59 77 0
585 76 -59 -77 0
-586 76 59 77 0
586 76 59 -77 0
-1436 296 -295 278 0
-740 117 99 -116 0
739 -116 -99 -117 0
625 86 -69 -87 0
-626 86 69 87 0
626 86 69 -87 0
737 -116 115 -62 0
621 -68 85 -86 0
-621 -68 85 86 0
620 68 -85 -86 0
-620 68 -85 86 0
-318 -283 -319 300 0
201 -163 -219 -200 0
-302 300 284 -283 0
-235 -163 -200 236 0
206 -170 187 205 0
-212 -214 195 -178 0
-321 323 -305 304 0
-838 142 -106 -121 0
630 70 87 -88 0
703 -89 106 -107 0
-641 92 37 -74 0
-1422 274 291 292 0
1421 -274 291 -292 0
-1421 -274 291 292 0
1420 -292 -291 274 0
-1420 292 -291 274 0
-717 -93 110 111 0
717 -93 110 -111 0
738 62 115 -116 0
-412 31 32 -11 0
412 31 -32 -11 0
1499 292 -294 -312 0
-1499 292 -294 312 0
-393 -10 -27 28 0
393 -10 -27 -28 0
-394 10 -27 28 0
-649 -93 -76 94 0
719 -111 -94 -112 0
-736 116 -115 62 0
735 -116 -62 -115 0
-735 116 -62 -115 0
1391 -266 283 -284 0
-1392 266 283 284 0
1392 266 283 -284 0
744 -117 -118 100 0
-744 -117 118 100 0
1422 274 291 -292 0
-619 -68 -85 86 0
619 -68 -85 -86 0
628 70 -87 -88 0
-629 -70 88 87 0
629 -70 -88 87 0
-630 70 87 88 0
-409 -31 32 11 0
641 -92 37 -74 0
-642 92 37 74 0
642 -92 37 74 0
-643 92 -37 -74 0
643 -92 -37 -74 0
-644 92 -37 74 0
644 -92 -37 74 0
-720 -111 94 112 0
1517 -299 -316 -317 0
-1517 -299 -316 317 0
445 40 -23 -41 0
40 41 23 -446 0
446 -41 23 40 0
1476 288 -305 -306 0
-451 -25 -42 43 0
-395 -10 27 28 0
394 10 -27 -28 0
-719 -111 -94 112 0
-396 10 27 28 0
396 10 27 -28 0
-403 29 -11 30 0
403 29 -11 -30 0
-405 31 -30 11 0
405 -31 11 -30 0
-406 31 -11 -30 0
-445 40 -23 41 0
652 76 93 -94 0
736 -116 62 -115 0
-718 93 110 111 0
718 93 110 -111 0
1419 -292 -291 -274 0
-1419 292 -291 -274 0
704 89 106 -107 0
-704 89 107 106 0
-1406 270 288 269 0
409 -32 11 -31 0
-410 -31 32 -11 0
410 -31 -32 -11 0
-411 31 32 11 0
727 -113 -114 95 0
690 86 -103 -104 0
-691 103 -86 104 0
-92 93 -75 -645 0
645 -92 -75 -93 0
-646 -92 75 93 0
-703 107 -89 106 0
646 -92 75 -93 0
-647 92 -75 93 0
647 92 -75 -93 0
-648 92 75 93 0
648 92 75 -93 0
746 117 -118 100 0
-699 105 -88 106 0
698 88 -106 -105 0
692 103 86 -104 0
-1405 -270 288 269 0
-661 95 -61 97 0
661 95 -61 -97 0
-662 95 61 97 0
662 95 61 -97 0
-663 -95 -61 97 0
663 -95 -61 -97 0
-664 -95 61 97 0
664 -95 61 -97 0
406 -31 -11 -30 0
-407 31 11 30 0
407 -31 11 30 0
-408 31 -11 30 0
408 -31 -11 30 0
-698 88 106 -105 0
-702 107 -106 89 0
701 -89 -106 -107 0
728 -113 -114 -95 0
-728 -113 114 -95 0
1405 -270 -288 269 0
-738 116 62 115 0
1408 -288 -269 270 0
-1408 288 -269 270 0
1407 -270 -288 -269 0
-669 99 -81 -62 0
669 -99 -81 -62 0
730 -95 -114 113 0
-730 -95 114 113 0
729 95 -114 113 0
-729 95 114 113 0
702 89 -106 -107 0
699 105 -88 -106 0
649 -93 -76 -94 0
-650 -93 76 94 0
650 -93 76 -94 0
-651 -76 93 94 0
651 -76 93 -94 0
682 -101 84 -102 0
-726 112 95 113 0
725 112 -95 -113 0
-725 113 -95 112 0
-683 101 -84 102 0
683 101 -84 -102 0
-684 101 84 102 0
684 101 84 -102 0
-685 -85 -102 103 0
685 -85 -102 -103 0
-1407 -270 288 -269 0
1406 270 -288 269 0
782 110 109 -128 0
720 -111 94 -112 0
-697 -88 106 -105 0
697 -105 -106 -88 0
-686 -102 85 103 0
686 -102 85 -103 0
-687 -85 102 103 0
687 -85 102 -103 0
-688 102 85 103 0
724 -113 95 -112 0
-724 -112 95 113 0
723 -113 -95 -112 0
-723 -112 -95 113 0
688 102 85 -103 0
722 111 94 -112 0
757 -103 120 -121 0
-758 103 120 121 0
-1389 -266 -283 284 0
1388 -283 282 265 0
-1388 282 283 265 0
1387 -265 282 -283 0
-1387 -265 282 283 0
1386 265 -283 -282 0
-1386 265 283 -282 0
1385 -265 -283 -282 0
1368 260 277 -278 0
-807 -117 -135 -116 0
807 -116 -135 117 0
-1368 260 277 278 0
1367 -260 277 -278 0
-1367 -260 277 278 0
-652 93 76 94 0
-721 111 -94 112 0
-782 110 109 128 0
-783 -110 -109 128 0
783 -110 -109 -128 0
-784 110 -109 128 0
750 101 118 -119 0
-1391 -266 283 284 0
1390 266 -283 -284 0
-1390 266 -283 284 0
1389 -266 -283 -284 0
-755 -103 -120 121 0
755 -103 -120 -121 0
-756 103 -120 121 0
756 103 -120 -121 0
-757 -103 120 121 0
-904 -158 121 159 0
904 -158 121 -159 0
-793 -113 131 -112 0
793 -113 -112 -131 0
758 103 120 -121 0
-794 113 -112 131 0
794 113 -112 -131 0
-795 -113 112 131 0
795 -113 112 -131 0
-796 113 112 131 0
796 113 112 -131 0
944 -169 168 151 0
-945 -152 170 -169 0
945 -152 -170 -169 0
-946 -169 152 170 0
946 -169 152 -170 0
-947 -152 170 169 0
947 -152 -170 169 0
-948 169 152 170 0
1366 -278 -277 260 0
781 -128 109 -110 0
-1365 278 -277 -260 0
-817 -136 -119 137 0
817 -136 -119 -137 0
-818 -136 119 137 0
818 -136 119 -137 0
-819 -119 136 137 0
784 110 -109 -128 0
-785 -128 -111 129 0
785 -128 -111 -129 0
-786 -128 111 129 0
786 -128 111 -129 0
-787 -111 128 129 0
787 -111 128 -129 0
-788 111 128 129 0
-820 119 136 137 0
820 119 136 -137 0
-825 139 -121 -138 0
826 -138 121 -139 0
-827 138 -121 139 0
827 138 -121 -139 0
-828 138 121 139 0
828 138 121 -139 0
-829 -139 140 -121 0
829 -139 -140 -121 0
-830 -139 121 140 0
830 -139 121 -140 0
-831 139 -121 140 0
831 139 -121 -140 0
-832 140 121 139 0
832 -140 121 139 0
-863 -112 149 -131 0
948 169 152 -170 0
-949 -153 -170 171 0
-1366 278 -277 260 0
1365 -278 -277 -260 0
837 -142 -121 106 0
838 -142 -106 -121 0
212 231 -195 -230 0
-841 143 -125 -142 0
841 -143 -125 -142 0
-842 -142 125 143 0
842 -142 125 -143 0
-843 143 -125 142 0
843 -143 -125 142 0
-844 142 125 143 0
844 142 125 -143 0
-845 -143 -126 144 0
845 -143 -126 -144 0
819 -119 136 -137 0
-689 -86 -103 104 0
689 -86 -103 -104 0
-690 86 -103 104 0
848 143 126 -144 0
-1358 258 -275 276 0
-129 -109 147 -855 0
855 -129 -109 -147 0
-856 129 -109 147 0
856 129 -109 -147 0
-857 -129 109 147 0
857 -129 109 -147 0
-858 129 109 147 0
858 129 109 -147 0
1352 -255 -274 273 0
-1352 -255 274 273 0
1351 255 -274 273 0
-1385 -265 283 -282 0
-775 126 -125 -108 0
863 -112 -149 -131 0
-864 131 -112 149 0
-837 142 -121 106 0
775 -126 -125 -108 0
896 139 138 -157 0
1378 -281 -280 244 0
-781 128 109 -110 0
864 131 -112 -149 0
-865 -131 112 149 0
865 -131 112 -149 0
-866 131 112 149 0
866 131 112 -149 0
-1351 255 274 273 0
1350 -255 -274 -273 0
-1350 -255 274 -273 0
1349 255 -274 -273 0
-1349 255 274 -273 0
-846 -143 126 144 0
846 -144 126 -143 0
-847 144 -126 143 0
847 -144 -126 143 0
881 -153 152 -135 0
-882 153 135 152 0
882 -153 135 152 0
-883 154 -136 -153 0
883 -154 -136 -153 0
-884 -153 136 154 0
884 -153 136 -154 0
-885 154 -136 153 0
885 -154 -136 153 0
-886 153 136 154 0
886 153 136 -154 0
-1347 -255 272 273 0
-914 143 160 161 0
914 143 160 -161 0
-915 -144 -161 162 0
915 -144 -161 -162 0
-916 144 -161 162 0
-897 157 -138 -139 0
897 -157 -138 -139 0
-898 157 -138 139 0
898 -157 -138 139 0
-1343 271 -254 272 0
1342 -271 254 -272 0
-1342 -271 254 272 0
1341 -271 -254 -272 0
-903 159 -158 -121 0
903 -159 -158 -121 0
1348 255 272 -273 0
-1348 255 272 273 0
1347 -255 272 -273 0
-879 153 -135 -152 0
879 -153 -135 -152 0
-880 153 135 -152 0
880 -153 135 -152 0
-881 153 152 -135 0
-905 158 -121 159 0
905 158 -121 -159 0
-906 158 121 159 0
906 158 121 -159 0
-907 -159 -142 160 0
907 -159 -142 -160 0
-908 -159 160 142 0
908 -159 -160 142 0
-909 159 -142 160 0
909 159 -142 -160 0
-910 159 160 142 0
910 159 -160 142 0
-911 -143 -160 161 0
911 -143 -160 -161 0
-912 161 -160 143 0
912 -161 -160 143 0
916 144 -161 -162 0
-917 -144 161 162 0
917 -144 161 -162 0
-918 144 161 162 0
918 144 161 -162 0
-1341 -271 -254 272 0
-921 -109 164 -163 0
921 -109 -164 -163 0
-922 109 -163 164 0
922 109 -164 -163 0
-923 -109 164 163 0
923 -109 -164 163 0
-924 109 164 163 0
924 109 163 -164 0
1338 252 269 -270 0
-1338 252 269 270 0
932 112 165 -166 0
-1336 270 252 -269 0
1335 -270 -269 -252 0
-1335 270 -269 -252 0
-941 -151 -168 169 0
941 -151 -168 -169 0
-942 151 -168 169 0
942 151 -168 -169 0
-943 169 168 -151 0
943 -169 168 -151 0
-944 169 168 151 0
975 -159 176 -177 0
-976 159 176 177 0
976 159 176 -177 0
-977 -160 -177 178 0
977 -160 -177 -178 0
-978 160 -177 178 0
-913 161 160 -143 0
913 -161 160 -143 0
-979 -160 177 178 0
949 -153 -170 -171 0
-950 153 -170 171 0
950 153 -170 -171 0
-951 -153 171 170 0
951 -153 -171 170 0
-952 153 171 170 0
952 153 -171 170 0
1337 -252 269 -270 0
-929 -112 -165 166 0
929 -112 -165 -166 0
-930 112 -165 166 0
930 112 -165 -166 0
-931 -112 165 166 0
931 -112 165 -166 0
-932 112 165 166 0
-848 144 126 143 0
-1337 -252 269 270 0
1336 -270 252 -269 0
1321 265 -248 -266 0
-969 176 157 -158 0
969 -176 157 -158 0
-973 -159 -176 177 0
973 -159 -176 -177 0
-974 159 -176 177 0
974 159 -176 -177 0
-975 -159 176 177 0
1346 255 -272 -273 0
-1346 255 -272 273 0
1345 -255 -272 -273 0
-1345 -255 -272 273 0
1344 271 254 -272 0
-1344 271 254 272 0
1343 271 -254 -272 0
978 160 -177 -178 0
980 160 177 -178 0
1296 241 -259 -260 0
-1296 241 -259 260 0
-981 -161 -178 179 0
981 -161 -178 -179 0
-982 161 -178 179 0
982 161 -178 -179 0
-983 -161 178 179 0
983 -161 178 -179 0
-984 161 178 179 0
984 161 178 -179 0
-1321 265 -248 266 0
1320 -265 248 -266 0
1322 265 -266 248 0
-1038 174 -157 193 0
-1181 229 -212 230 0
1181 229 -212 -230 0
-1182 229 212 230 0
1286 -255 239 -257 0
-1189 -214 231 232 0
1189 -214 231 -232 0
-1190 232 231 214 0
1190 -232 231 214 0
-1191 -232 233 214 0
1191 -232 -233 214 0
-1192 -232 233 -214 0
1192 -232 -233 -214 0
-1193 214 233 232 0
1193 214 -233 232 0
-1194 232 233 -214 0
-895 -139 138 157 0
895 138 -157 -139 0
-896 139 138 157 0
979 -160 177 -178 0
-980 160 177 178 0
1249 -247 -230 -248 0
1295 -259 -260 -241 0
-1295 -259 260 -241 0
1014 169 186 -187 0
1298 241 259 -260 0
-1035 -174 157 193 0
1035 -174 157 -193 0
-1036 -174 -157 193 0
1036 -174 -157 -193 0
-1037 174 157 193 0
1037 174 157 -193 0
1165 -226 -208 206 0
-1166 226 208 206 0
1166 -226 208 206 0
1142 202 219 -220 0
-1143 -220 -203 221 0
1252 247 230 -248 0
1182 229 212 -230 0
1188 -232 214 -231 0
1218 222 -239 -240 0
-1219 -222 239 240 0
1219 -222 239 -240 0
-1220 222 239 240 0
1220 222 239 -240 0
-1221 241 -240 -223 0
1221 -223 -240 -241 0
-1222 241 -240 223 0
1222 -241 -240 223 0
-1223 241 -223 240 0
1223 -241 -223 240 0
1194 232 -233 -214 0
-1252 247 230 248 0
-1298 241 259 260 0
1297 -260 259 -241 0
-1297 260 259 -241 0
-1079 -186 204 203 0
-1262 233 -249 251 0
1261 -233 -249 -251 0
-1261 -233 -249 251 0
-1175 -211 -209 229 0
1175 -229 -209 -211 0
-1176 211 -209 229 0
1176 211 -229 -209 0
-1177 229 -211 209 0
1177 -229 -211 209 0
-1178 211 229 209 0
1082 -204 187 -205 0
-1083 204 -187 205 0
1083 204 -187 -205 0
-1084 204 187 205 0
1084 204 187 -205 0
-1291 -258 259 -241 0
1293 -259 258 -241 0
-1004 185 167 -184 0
1004 -185 167 -184 0
-1005 184 -167 185 0
1005 184 -167 -185 0
-1006 185 167 184 0
1006 -185 167 184 0
-1007 -185 -168 186 0
1007 -185 -168 -186 0
-1008 -185 168 186 0
1008 -185 168 -186 0
241 -1224 223 240 0
-241 1224 223 240 0
1236 226 206 -244 0
1251 247 -230 -248 0
-1251 247 -230 248 0
1250 -247 230 -248 0
-1250 -247 230 248 0
1043 -177 -194 -195 0
1079 -186 203 -204 0
-1080 204 203 186 0
1078 -204 -203 186 0
-1110 194 -211 212 0
1109 -194 -211 -212 0
-1109 -194 -211 212 0
1080 -204 203 186 0
-1081 -204 -187 205 0
1081 -204 -187 -205 0
-1082 -204 187 205 0
-1322 265 266 248 0
1038 174 -157 -193 0
-1039 -193 -176 194 0
1039 -193 -176 -194 0
1187 -232 -214 -231 0
-1188 232 214 -231 0
-1094 190 208 -206 0
-1286 -255 239 257 0
1285 -255 -239 -257 0
-1001 -182 -166 184 0
1001 -182 -166 -184 0
-1002 -182 166 184 0
1002 -182 166 -184 0
-1003 -184 -167 185 0
1003 -184 -167 -185 0
-1040 -193 176 194 0
1040 -193 176 -194 0
-1041 193 -176 194 0
-1009 185 -168 186 0
1009 185 -168 -186 0
-1010 186 168 185 0
1010 -186 168 185 0
-1011 -186 -169 187 0
1011 -186 -169 -187 0
1126 198 214 -216 0
-1044 177 -194 195 0
1044 177 -194 -195 0
-1045 -177 194 195 0
1045 -177 194 -195 0
-1046 177 194 195 0
1046 177 194 -195 0
-1012 -186 169 187 0
1012 -186 169 -187 0
-1013 -169 186 187 0
1013 -169 186 -187 0
-1014 169 186 187 0
-1320 -265 248 266 0
-1111 211 -194 212 0
1111 211 -194 -212 0
-1112 211 194 212 0
1112 211 194 -212 0
-1318 247 264 265 0
-1317 -247 264 265 0
1316 247 -264 -265 0
-1316 265 247 -264 0
1315 -247 -264 -265 0
-1315 265 -247 -264 0
-999 182 -166 184 0
999 182 -166 -184 0
-1000 182 166 184 0
1000 182 166 -184 0
-1265 252 -251 -234 0
1265 -234 -251 -252 0
-1266 234 -251 252 0
1154 222 205 -223 0
1041 193 -176 -194 0
-1042 193 176 194 0
1042 193 176 -194 0
-1043 -177 -194 195 0
-1126 198 214 216 0
1125 -198 214 -216 0
-1125 -198 214 216 0
-1275 255 236 -254 0
1275 -255 236 -254 0
-1276 255 -236 -254 0
-1140 202 -219 220 0
1140 202 -219 -220 0
-1141 -202 219 220 0
1141 -202 219 -220 0
-1142 202 219 220 0
1110 194 -211 -212 0
788 111 128 -129 0
-1378 281 -280 244 0
825 -138 -121 -139 0
-826 -138 121 139 0
1278 -255 254 -236 0
1317 -247 -265 264 0
-1278 255 -236 254 0
-1152 -222 205 223 0
1277 -255 236 254 0
-1277 255 236 254 0
1276 -255 -254 -236 0
-1144 203 221 -220 0
1144 203 -221 -220 0
-1145 220 -203 221 0
1145 220 -203 -221 0
-1146 203 221 220 0
1146 203 -221 220 0
-1147 -204 -221 222 0
1147 -204 -221 -222 0
-1154 222 205 223 0
1153 222 -205 -223 0
-1153 222 -205 223 0
1152 -222 205 -223 0
-1150 204 221 222 0
1150 204 221 -222 0
-1151 -222 -205 223 0
1151 -222 -205 -223 0
1264 233 249 -251 0
-1264 233 251 249 0
1263 -233 249 -251 0
-1263 -233 249 251 0
1262 233 -251 -249 0
-1163 226 -208 -206 0
1163 -226 -208 -206 0
-1164 226 208 -206 0
1164 -226 208 -206 0
-1165 226 -208 206 0
1233 -226 -206 -244 0
1358 258 -275 -276 0
-1233 -226 -206 244 0
-1187 232 -214 -231 0
1143 -220 -203 -221 0
-1235 -226 244 206 0
1235 -226 -244 206 0
-1236 226 206 244 0
-1243 246 -209 244 0
1242 -246 209 -244 0
-1242 246 209 -244 0
1241 -246 -209 -244 0
-1241 246 -209 -244 0
-1217 -222 -239 240 0
1217 -222 -239 -240 0
-1218 222 -239 240 0
-1127 -198 -214 216 0
-1148 204 -221 222 0
1148 204 -221 -222 0
-1149 -204 221 222 0
1149 -204 221 -222 0
1272 -235 236 -254 0
-1245 -229 -246 247 0
1245 -229 -246 -247 0
-1246 229 -246 247 0
1246 229 -246 -247 0
1244 -246 209 244 0
-1247 -229 246 247 0
1247 -229 246 -247 0
-1244 246 209 244 0
1243 -246 -209 244 0
-1248 229 246 247 0
1248 229 246 -247 0
-1249 -247 -230 248 0
-1234 226 244 -206 0
1319 -266 -265 -248 0
-1319 266 -265 -248 0
1318 247 -265 264 0
1234 226 -244 -206 0
1108 193 210 -211 0
1266 234 -251 -252 0
-1267 -234 251 252 0
1267 -252 -234 251 0
-1268 234 251 252 0
1268 234 251 -252 0
-1139 -202 -219 220 0
-1272 -235 236 254 0
1139 -202 -219 -220 0
-807 -116 135 117 0
116 -808 -135 -117 0
116 808 -135 117 0
808 116 -117 135 0
-808 117 135 116 0
1127 -198 -214 -216 0
-1128 198 -214 216 0
1128 198 -214 -216 0
321 323 -304 0
442 -40 22 0
-1470 304 249 0
-441 -22 40 0
441 -40 -22 0
-491 53 -52 0
491 -53 -52 0
-493 53 52 0
493 -53 52 0
-506 57 37 0
506 -57 37 0
-508 57 -37 0
508 -57 -37 0
117 152 -135 0
-372 -1 22 0
-872 151 -150 0
872 -151 -150 0
-874 151 150 0
371 -22 1 0
874 -151 150 0
-963 138 174 0
963 138 -174 0
-964 174 -138 0
964 -174 -138 0
-371 22 1 0
57 75 74 0
-1030 190 191 0
1030 190 -191 0
-246 -264 -244 0
32 33 -11 0
-429 -1 37 0
-233 -234 -216 0
429 -1 -37 0
-221 239 236 0
221 -239 236 0
-331 5 1 0
331 -5 1 0
-333 -5 6 0
332 -1 -5 0
-298 316 -314 0
142 -840 121 0
-87 -104 -105 0
-332 -1 5 0
-282 -264 -281 0
178 -179 -197 0
1485 -309 -290 0
-179 -197 -195 0
1199 -163 -235 0
-23 24 -6 0
-114 -150 149 0
251 -269 249 0
710 -109 -37 0
372 -22 -1 0
-442 40 22 0
1470 -304 249 0
292 276 -294 0
1200 -235 163 0
-291 273 290 0
28 29 -11 0
-171 -190 -187 0
709 -109 37 0
-709 109 37 0
107 71 -108 0
-1339 271 -235 0
246 -264 244 0
1339 -271 -235 0
-1340 271 235 0
-75 -57 74 0
919 109 -163 0
1340 -271 235 0
-246 264 244 0
60 43 61 0
246 264 -244 0
-77 94 -95 0
1410 271 -289 0
-1410 271 289 0
1409 -271 -289 0
-1409 -271 289 0
-275 -274 -257 0
-305 304 269 0
-919 109 163 0
258 -240 257 0
185 202 203 0
-97 115 -114 0
147 -165 -164 0
-118 -135 -136 0
920 -109 -163 0
102 119 120 0
-212 -195 -231 0
137 138 -120 0
-62 -81 45 0
-174 209 -210 0
67 -85 84 0
-88 89 71 0
-1199 235 -163 0
195 -178 197 0
-82 100 -99 0
-69 52 -70 0
182 -164 163 0
-182 164 163 0
-920 -109 163 0
182 164 -163 0
46 45 -64 0
154 171 -190 0
-150 168 167 0
-42 -41 -24 0
57 -75 -74 0
75 -57 -74 0
-710 109 -37 0
-1200 235 163 0
-313 -312 295 0
313 -312 -295 0
284 -285 -249 0
-162 -179 180 0
-171 -190 170 0
-62 61 -43 0
430 1 -37 0
259 276 -277 0
-1485 309 -290 0
-182 -164 -163 0
-970 176 158 0
970 -176 158 0
-971 176 -157 0
971 -176 -157 0
171 -154 190 0
-1274 254 235 0
-488 52 -33 0
488 -52 -33 0
-489 52 51 0
489 -52 51 0
-1360 276 275 0
-1500 312 294 0
1497 -312 -292 0
-338 7 8 0
-323 -321 -304 0
-1488 309 291 0
-1271 254 -236 0
574 -37 -74 0
-574 -37 74 0
50 -51 33 0
358 -18 11 0
571 -74 37 0
1377 -281 -244 0
74 -571 37 0
-1377 281 -244 0
-401 30 -29 0
1500 -312 294 0
1488 -309 291 0
-1497 312 -292 0
401 -30 -29 0
1271 -254 -236 0
-1475 -288 306 0
-1476 288 306 0
60 -43 -61 0
1477 -288 305 0
-61 -60 43 0
1360 275 -276 0
404 -30 11 0
-404 30 11 0
-43 -60 61 0
58 59 41 0
289 -272 290 0
208 209 191 0
1478 288 305 0
-295 -313 312 0
776 -126 108 0
-776 126 108 0
140 157 -158 0
-1380 281 280 0
1380 -281 280 0
-1468 304 285 0
42 24 -41 0
42 41 -24 0
-670 99 81 0
670 -99 81 0
-671 99 62 0
671 -99 62 0
-1357 276 -258 0
1357 -258 -276 0
1274 -254 235 0
221 239 -236 0
-248 -249 -231 0
335 -7 -6 0
-221 -239 -236 0
-142 840 121 0
-336 7 6 0
295 313 312 0
344 10 -11 0
321 -323 304 0
-1028 -190 191 0
1028 -190 -191 0
342 -10 -8 0
-343 -10 11 0
343 -10 -11 0
-344 10 11 0
-358 18 11 0
-280 244 279 0
-117 152 135 0
337 -8 -7 0
167 149 166 0
212 195 -231 0
-334 5 6 0
334 5 -6 0
260 278 279 0
357 -18 -11 0
-777 126 125 0
1468 -304 285 0
-335 7 -6 0
-357 18 -11 0
-342 10 -8 0
341 -10 8 0
-341 10 8 0
-42 24 41 0
-337 8 -7 0
338 7 -8 0
336 -7 6 0
-27 45 43 0
333 -5 -6 0
-430 37 1 0
777 -126 125 0
-290 291 0
212 214 0
306 323 0
178 214 0
114 150 0
-119 -120 0
11 -33 0
151 152 0
-52 70 0
69 70 0
-102 -120 0
-115 114 0
97 -115 0
-166 -167 0
-50 51 0
77 95 0
162 -180 0
-43 -45 0
6 -24 0
-58 -59 0
-41 -59 0
108 -71 0
82 -100 0
-100 99 0
87 105 0
108 -107 0
104 105 0
-300 302 0
-32 -33 0
174 210 0
107 125 0
135 136 0
-94 95 0
-28 -29 0
23 -24 0
298 -316 0
314 -316 0
200 219 0
230 -231 0
231 249 0
248 249 0
200 -236 0
-323 305 0
210 -209 0
318 319 0
-191 -209 0
-195 214 0
233 234 0
319 283 0
302 -284 0
-300 319 0
-185 -203 0
-202 -203 0
197 179 0
-167 -149 0
235 -236 0
11 -29 0
-259 277 0
281 282 0
264 282 0
-260 -279 0
-279 280 0
-278 -279 0
280 -244 0
51 -33 0
-140 158 0
-157 158 0
81 62 0
81 -45 0
-61 62 0
164 165 0
27 -45 0
-205 -206 0
274 275 0
-137 -138 0
120 -138 0
-187 -206 0
-45 64 0
-46 64 0
-168 150 0
62 43 0
-180 179 0
88 -89 0
-71 -89 0
-147 165 0
283 302 0
118 136 0
-84 85 0
-67 85 0
-167 -168 0
-106 125 0
-201 219 0
-209 -208 0
-236 163 0
170 -206 0
-149 150 0
121 125 0
216 234 0
-292 294 0
294 -276 0
269 -249 0
-251 269 0
219 163 0
275 257 0
-257 -258 0
-258 240 0
305 -269 0
-304 305 0
-289 -290 0
272 -290 0
-273 291 0
-284 285 0
285 249 0
-276 277 0
